1330373
0,34,4,81,44,82,62,19,43,84,42,31,94,60,5,29,78,66,3,91,102,55,73,14,22,63,21,103,96,57,53,101,99,52,16,79,47,20,12,92,95,86,61,18,72,75,49,17,6,35,27,7,39,67,11,64,87,105,107,77,32,54,59,41,104,98,70,46,38,13,69,68,26,85,74,56,71,30,40,37,25,36,8,76,65,48,10,90,88,9,108,23,89,2,24,15,106,93,80,1,50,83,58,45,28,51,33,97,100,0